NAME: synthetic_30_4.vrp
COMMENT: Synthetic VRP instance with 30 customers, 4 vehicles
TYPE: CVRP
DIMENSION: 31
EDGE_WEIGHT_TYPE: EUC_2D
CAPACITY: 150
NODE_COORD_SECTION
1 0 0
2 81 14
3 3 94
4 35 31
5 28 17
6 94 13
7 86 94
8 69 11
9 75 54
10 4 3
11 11 27
12 29 64
13 77 3
14 71 25
15 91 83
16 89 69
17 53 28
18 57 75
19 35 0
20 97 20
21 89 54
22 43 35
23 19 27
24 97 43
25 13 11
26 48 12
27 45 44
28 77 33
29 5 93
30 58 68
31 15 48
DEMAND_SECTION
1 0
2 3
3 18
4 10
5 27
6 21
7 20
8 29
9 28
10 12
11 19
12 7
13 23
14 3
15 2
16 22
17 8
18 25
19 10
20 3
21 28
22 8
23 28
24 4
25 13
26 9
27 15
28 21
29 27
30 12
31 6
DEPOT_SECTION
1
-1
EOF
